dropConstraintCity = true;
dropConstraintTime = true;
dropConstraintStyle = true;
dropConstraintInstru = true;
dropConstraintLevel = true;

nbPersonnes = 12;

nbHeuresHebdo = [3,3,2,3,5,3,3,3,2,2,3,3];
niveaux = [2,1,5,2,2,3,5,5,5,2,2,4];

nbHeuresMin = [2,1,1,1,3,1,1,3,2,1,3,3];
nbHeuresMax = [4,5,2,4,6,5,5,3,3,5,5,6];
niveauMin = [1,1,3,1,1,1,1,5,4,1,1,2];
niveauMax = [4,2,5,5,3,3,5,5,5,3,3,5];
nbStylesMin = [2,3,1,1,2,2,1,1,1,1,2,1];

instrusments = [
	Guitare,
	Batterie,
	Guitare,
	Batterie,
	Violon,
	Guitare,
	Piano,
	Violon,
	Piano,
	Piano,
	Basse,
	Basse
];

villes = [
	Angers,
	Nantes,
	Angers,
	Nantes,
	Angers,
	Angers,
	Nantes,
	Nantes,
	Angers,
	Nantes,
	Nantes,
	Angers
];

styles = [
	{Rock,Metal,Jazz},
	{Jazz,Pop,Classique, Rock,Funk},
	{RnB,Rap,Classique},
	{Pop,Punk,Electro},
	{Classique,Metal,Jazz},
	{Punk,Rock,Classique,Jazz},
	{Pop,Rock,Jazz,Classique},
	{Classique},
	{Classique,Jazz},
	{Jazz,Electro},
	{Jazz,Rap,Funk,Rock},
	{Metal,Pop,Electro,Jazz}
]
